data/solutions/recovery/degenerate/intermediate/flexible/degenerate_intermediate_instance23/23.sol
Elapsed time: 100.08
Upper bound: 227601602.0
Planning weighted value: 9.00487931239e+11
C[0]=227601602.0
C[1]=227599870.0
C[2]=227323752.0
C[3]=227185041.0
C[4]=227022179.0
C[5]=226988784.0
C[6]=226838100.0
C[7]=226092996.0
C[8]=225715348.0
C[9]=221139863.0
C[10]=218898365.0
C[11]=0.0
y[0]=4
y[1]=7
y[2]=5
y[3]=6
y[4]=5
y[5]=7
y[6]=2
y[7]=1
y[8]=4
y[9]=10
y[10]=4
y[11]=3
y[12]=8
y[13]=2
y[14]=0
y[15]=2
y[16]=0
y[17]=4
y[18]=7
y[19]=2
y[20]=9
y[21]=2
y[22]=0
y[23]=4
y[24]=5
y[25]=0
y[26]=5
y[27]=3
y[28]=9
y[29]=5
y[30]=6
y[31]=6
y[32]=7
y[33]=2
y[34]=9
y[35]=8
y[36]=5
y[37]=6
y[38]=8
y[39]=4
y[40]=10
y[41]=4
y[42]=6
y[43]=7
y[44]=5
y[45]=1
y[46]=4
y[47]=0
y[48]=3
y[49]=3
y[50]=8
y[51]=10
y[52]=10
y[53]=1
y[54]=6
y[55]=8
y[56]=9
y[57]=9
y[58]=8
y[59]=6
y[60]=1
y[61]=3
y[62]=3
y[63]=10
y[64]=10
y[65]=3
y[66]=0
y[67]=10
y[68]=1
y[69]=0
y[70]=10
y[71]=4
y[72]=7
y[73]=1
y[74]=8
y[75]=4
y[76]=7
y[77]=0
