data/solutions/recovery/degenerate/intermediate/flexible/degenerate_intermediate_instance23/23.log

Log started (V12.6.3.0) Sat Apr 21 15:07:03 2018

New value for default parallel thread count: 1

Problem '/tmp/tmplnKwpo.pyomo.lp' read.
Read time = 0.01 sec. (0.84 ticks)

Problem name         : /tmp/tmplnKwpo.pyomo.lp
Objective sense      : Minimize
Variables            :     950  [Nneg: 1,  Binary: 936,  General Integer: 13]
Objective nonzeros   :       1
Linear constraints   :     182  [Less: 90,  Equal: 92]
  Nonzeros           :   60259
  RHS nonzeros       :     157

Variables            : Min LB: 0.000000         Max UB: 1.000000       
Objective nonzeros   : Min   : 1.000000         Max   : 1.000000       
Linear constraints   :
  Nonzeros           : Min   : 1.000000         Max   : 6.145599e+07   
  RHS nonzeros       : Min   : 1.000000         Max   : 8.000000       
Tried aggregator 2 times.
MIP Presolve eliminated 82 rows and 141 columns.
Aggregator did 5 substitutions.
Reduced MIP has 95 rows, 804 columns, and 2247 nonzeros.
Reduced MIP has 792 binaries, 12 generals, 0 SOSs, and 0 indicators.
Presolve time = 0.01 sec. (10.91 ticks)
Found incumbent of value 7.0129944e+08 after 0.01 sec. (12.44 ticks)
Probing time = 0.00 sec. (1.59 ticks)
Tried aggregator 1 time.
Reduced MIP has 95 rows, 804 columns, and 2247 nonzeros.
Reduced MIP has 792 binaries, 12 generals, 0 SOSs, and 0 indicators.
Presolve time = 0.00 sec. (1.15 ticks)
Probing time = 0.00 sec. (1.59 ticks)
Clique table members: 72.
MIP emphasis: balance optimality and feasibility.
MIP search method: dynamic search.
Parallel mode: none, using 1 thread.
Root relaxation solution time = 0.00 sec. (1.27 ticks)

        Nodes                                         Cuts/
   Node  Left     Objective  IInf  Best Integer    Best Bound    ItCnt     Gap

*     0+    0                       7.01299e+08        0.0000           100.00%
      0     0   2.25673e+08    29   7.01299e+08   2.25673e+08      122   67.82%
      0     0   2.25673e+08    33   7.01299e+08      Fract: 8      153   67.82%
      0     0   2.25673e+08    22   7.01299e+08      Fract: 1      170   67.82%
*     0+    0                       2.52037e+08   2.25673e+08            10.46%
*     0+    0                       2.50518e+08   2.25673e+08             9.92%
*     0+    0                       2.50087e+08   2.25673e+08             9.76%
*     0+    0                       2.49641e+08   2.25673e+08             9.60%
*     0+    0                       2.49407e+08   2.25673e+08             9.52%
*     0+    0                       2.45644e+08   2.25673e+08             8.13%
      0     2   2.25673e+08    16   2.45644e+08   2.25673e+08      170    8.13%
Elapsed time = 0.06 sec. (67.11 ticks, tree = 0.01 MB, solutions = 7)
*    50+   47                       2.43858e+08   2.25673e+08             7.46%
*   100+   93                       2.43540e+08   2.25673e+08             7.34%
*   130+  123                       2.43485e+08   2.25673e+08             7.32%
*   180+  153                       2.39245e+08   2.25673e+08             5.67%
*   440+  332                       2.33987e+08   2.25673e+08             3.55%
    847   657   2.25673e+08    20   2.33987e+08   2.25673e+08     4614    3.55%
    848   658   2.25673e+08    20   2.33987e+08   2.25673e+08     4617    3.55%
    849   659   2.25673e+08    21   2.33987e+08   2.25673e+08     4620    3.55%
    850   660   2.25673e+08    19   2.33987e+08   2.25673e+08     4628    3.55%
    851   661   2.25673e+08    21   2.33987e+08   2.25673e+08     4632    3.55%
    852   662   2.25731e+08    19   2.33987e+08   2.25673e+08     4639    3.55%
    853   663   2.25673e+08    21   2.33987e+08   2.25673e+08     4640    3.55%
    854   664   2.25673e+08    20   2.33987e+08   2.25673e+08     4642    3.55%
    855   665   2.25673e+08    20   2.33987e+08   2.25673e+08     4645    3.55%
*  1000+  782                       2.33184e+08   2.25673e+08             3.22%
*  1000+  759                       2.30937e+08   2.25673e+08             2.28%
*  1000+  699                       2.29721e+08   2.25673e+08             1.76%
*  1313+  570                       2.28857e+08   2.25673e+08             1.39%
*  1313+  425                       2.28358e+08   2.25673e+08             1.18%
   1313   427   2.25673e+08    22   2.28358e+08   2.25673e+08     7586    1.18%
Elapsed time = 0.90 sec. (1076.03 ticks, tree = 0.23 MB, solutions = 17)
   1963   540   2.25673e+08    23   2.28358e+08   2.25673e+08    12696    1.18%
   1964   541   2.25673e+08    26   2.28358e+08   2.25673e+08    12704    1.18%
   1965   542   2.25673e+08    28   2.28358e+08   2.25673e+08    12707    1.18%
   1966   543   2.25673e+08    26   2.28358e+08   2.25673e+08    12709    1.18%
   1967   544   2.25673e+08    27   2.28358e+08   2.25673e+08    12711    1.18%
   1968   545   2.25673e+08    27   2.28358e+08   2.25673e+08    12712    1.18%
   1969   546   2.25673e+08    23   2.28358e+08   2.25673e+08    12719    1.18%
   1970   547   2.25673e+08    25   2.28358e+08   2.25673e+08    12721    1.18%
   1971   548   2.25673e+08    23   2.28358e+08   2.25673e+08    12722    1.18%
   1972   549   2.25673e+08    23   2.28358e+08   2.25673e+08    12725    1.18%
Elapsed time = 1.66 sec. (2033.57 ticks, tree = 0.31 MB, solutions = 17)
*  2013+  572                       2.28284e+08   2.25673e+08             1.14%
   3994  2077   2.25673e+08    25   2.28284e+08   2.25673e+08    25427    1.14%
   3995  2078   2.25673e+08    27   2.28284e+08   2.25673e+08    25431    1.14%
   3996  2079   2.25673e+08    30   2.28284e+08   2.25673e+08    25445    1.14%
   3997  2080   2.25673e+08    27   2.28284e+08   2.25673e+08    25446    1.14%
   3998  2081   2.25673e+08    29   2.28284e+08   2.25673e+08    25447    1.14%
   3999  2082   2.25673e+08    29   2.28284e+08   2.25673e+08    25448    1.14%
   4000  2083   2.25673e+08    29   2.28284e+08   2.25673e+08    25449    1.14%
   4001  2084   2.25673e+08    29   2.28284e+08   2.25673e+08    25450    1.14%
   4002  2085   2.25673e+08    27   2.28284e+08   2.25673e+08    25451    1.14%
   4003  2086   2.25673e+08    27   2.28284e+08   2.25673e+08    25452    1.14%
Elapsed time = 2.38 sec. (2990.63 ticks, tree = 1.24 MB, solutions = 18)
   6013  3759   2.25673e+08    30   2.28284e+08   2.25673e+08    45094    1.14%
   6014  3760   2.25673e+08    28   2.28284e+08   2.25673e+08    45101    1.14%
   6015  3761   2.25673e+08    28   2.28284e+08   2.25673e+08    45104    1.14%
   6016  3762   2.25673e+08    28   2.28284e+08   2.25673e+08    45106    1.14%
   6017  3763   2.25673e+08    28   2.28284e+08   2.25673e+08    45107    1.14%
   6018  3764   2.25673e+08    32   2.28284e+08   2.25673e+08    45111    1.14%
   6019  3765   2.25673e+08    32   2.28284e+08   2.25673e+08    45112    1.14%
   6020  3766   2.25673e+08    32   2.28284e+08   2.25673e+08    45113    1.14%
   6021  3767   2.25673e+08    33   2.28284e+08   2.25673e+08    45117    1.14%
   6022  3768   2.25673e+08    30   2.28284e+08   2.25673e+08    45130    1.14%
Elapsed time = 3.09 sec. (3946.33 ticks, tree = 2.21 MB, solutions = 18)
   8275  5688   2.28217e+08    20   2.28284e+08   2.25673e+08    61870    1.14%
   8276  5689   2.28217e+08    22   2.28284e+08   2.25673e+08    61873    1.14%
   8277  5690   2.28217e+08    17   2.28284e+08   2.25673e+08    61875    1.14%
   8278  5691   2.28217e+08    18   2.28284e+08   2.25673e+08    61895    1.14%
   8279  5692   2.28217e+08    17   2.28284e+08   2.25673e+08    61896    1.14%
   8280  5693   2.28217e+08    18   2.28284e+08   2.25673e+08    61897    1.14%
   8281  5694   2.28217e+08    19   2.28284e+08   2.25673e+08    61903    1.14%
   8282  5695   2.28217e+08    21   2.28284e+08   2.25673e+08    61906    1.14%
   8283  5696   2.28217e+08    19   2.28284e+08   2.25673e+08    61910    1.14%
   8284  5697   2.28217e+08    19   2.28284e+08   2.25673e+08    61911    1.14%
Elapsed time = 3.79 sec. (4903.60 ticks, tree = 3.48 MB, solutions = 18)
* 11073+ 7831                       2.28280e+08   2.25673e+08             1.14%
  11073  7833   2.25673e+08    22   2.28280e+08   2.25673e+08    78761    1.14%
  11074  7834   2.25673e+08    32   2.28280e+08   2.25673e+08    78787    1.14%
  11075  7835   2.25673e+08    33   2.28280e+08   2.25673e+08    78813    1.14%
  11076  7836   2.25673e+08    31   2.28280e+08   2.25673e+08    78814    1.14%
  11077  7837   2.25673e+08    31   2.28280e+08   2.25673e+08    78815    1.14%
  11078  7838   2.25673e+08    30   2.28280e+08   2.25673e+08    78828    1.14%
  11079  7839   2.25673e+08    31   2.28280e+08   2.25673e+08    78829    1.14%
  11080  7840   2.25673e+08    30   2.28280e+08   2.25673e+08    78830    1.14%
  11081  7841   2.25673e+08    30   2.28280e+08   2.25673e+08    78831    1.14%
  11082  7842   2.25673e+08    29   2.28280e+08   2.25673e+08    78835    1.14%
Elapsed time = 4.83 sec. (6193.73 ticks, tree = 4.80 MB, solutions = 19)
  13064  9468   2.25673e+08    25   2.28280e+08   2.25673e+08    98162    1.14%
  13065  9469   2.25673e+08    23   2.28280e+08   2.25673e+08    98163    1.14%
  13066  9470   2.25673e+08    26   2.28280e+08   2.25673e+08    98169    1.14%
  13067  9471   2.25673e+08    23   2.28280e+08   2.25673e+08    98172    1.14%
  13068  9472   2.25673e+08    24   2.28280e+08   2.25673e+08    98173    1.14%
  13069  9473   2.25673e+08    23   2.28280e+08   2.25673e+08    98184    1.14%
  13070  9474   2.25673e+08    21   2.28280e+08   2.25673e+08    98185    1.14%
  13071  9475   2.25673e+08    22   2.28280e+08   2.25673e+08    98189    1.14%
  13072  9476   2.25673e+08    20   2.28280e+08   2.25673e+08    98190    1.14%
  13073  9477   2.25673e+08    23   2.28280e+08   2.25673e+08    98194    1.14%
Elapsed time = 5.52 sec. (7149.51 ticks, tree = 5.99 MB, solutions = 19)
  14977 11025   2.25955e+08    25   2.28280e+08   2.25673e+08   115492    1.14%
  14978 11026   2.25955e+08    25   2.28280e+08   2.25673e+08   115494    1.14%
  14979 11027   2.25955e+08    23   2.28280e+08   2.25673e+08   115504    1.14%
  14980 11028   2.25955e+08    25   2.28280e+08   2.25673e+08   115512    1.14%
  14981 11029   2.25955e+08    25   2.28280e+08   2.25673e+08   115514    1.14%
  14982 11030   2.25955e+08    25   2.28280e+08   2.25673e+08   115515    1.14%
  14983 11031   2.25955e+08    24   2.28280e+08   2.25673e+08   115519    1.14%
  14984 11032   2.25955e+08    23   2.28280e+08   2.25673e+08   115524    1.14%
  14985 11033   2.25955e+08    20   2.28280e+08   2.25673e+08   115539    1.14%
  14986 11034   2.25955e+08    21   2.28280e+08   2.25673e+08   115553    1.14%
Elapsed time = 6.21 sec. (8106.14 ticks, tree = 6.93 MB, solutions = 19)
  16932 12693   2.27071e+08    21   2.28280e+08   2.25673e+08   133303    1.14%
  16933 12694   2.27071e+08    20   2.28280e+08   2.25673e+08   133311    1.14%
  16934 12695   2.27071e+08    20   2.28280e+08   2.25673e+08   133313    1.14%
  16935 12696   2.27071e+08    20   2.28280e+08   2.25673e+08   133328    1.14%
  16936 12697   2.27071e+08    20   2.28280e+08   2.25673e+08   133329    1.14%
  16937 12698   2.27071e+08    20   2.28280e+08   2.25673e+08   133331    1.14%
  16938 12699   2.27071e+08    18   2.28280e+08   2.25673e+08   133334    1.14%
  16939 12700   2.27071e+08    18   2.28280e+08   2.25673e+08   133335    1.14%
  16940 12699    infeasible         2.28280e+08   2.25673e+08   133335    1.14%
  16941 12698        cutoff         2.28280e+08   2.25673e+08   133355    1.14%
Elapsed time = 6.92 sec. (9062.15 ticks, tree = 8.00 MB, solutions = 19)
  18759 14242   2.25673e+08    32   2.28280e+08   2.25673e+08   151550    1.14%
  18760 14243   2.25673e+08    30   2.28280e+08   2.25673e+08   151563    1.14%
  18761 14244   2.25673e+08    31   2.28280e+08   2.25673e+08   151567    1.14%
  18762 14245   2.25673e+08    32   2.28280e+08   2.25673e+08   151573    1.14%
  18763 14246   2.25673e+08    32   2.28280e+08   2.25673e+08   151574    1.14%
  18764 14247   2.25673e+08    32   2.28280e+08   2.25673e+08   151578    1.14%
  18765 14248   2.25673e+08    32   2.28280e+08   2.25673e+08   151579    1.14%
  18766 14249   2.25673e+08    24   2.28280e+08   2.25673e+08   151592    1.14%
  18767 14250   2.25673e+08    32   2.28280e+08   2.25673e+08   151611    1.14%
  22701 17524   2.25673e+08    32   2.28280e+08   2.25673e+08   207057    1.14%
Elapsed time = 9.68 sec. (12877.88 ticks, tree = 11.53 MB, solutions = 19)
  28298 22370   2.25673e+08    36   2.28280e+08   2.25673e+08   272863    1.14%
  28299 22371   2.25673e+08    30   2.28280e+08   2.25673e+08   272878    1.14%
  28300 22372   2.25673e+08    35   2.28280e+08   2.25673e+08   272919    1.14%
  28301 22373   2.25673e+08    38   2.28280e+08   2.25673e+08   272937    1.14%
  28302 22374   2.25673e+08    32   2.28280e+08   2.25673e+08   272948    1.14%
  28303 22375   2.25673e+08    29   2.28280e+08   2.25673e+08   272956    1.14%
  28304 22376   2.25673e+08    28   2.28280e+08   2.25673e+08   272959    1.14%
  28305 22377   2.25673e+08    24   2.28280e+08   2.25673e+08   272962    1.14%
  28306 22378   2.25673e+08    33   2.28280e+08   2.25673e+08   272993    1.14%
  28307 22379   2.25673e+08    32   2.28280e+08   2.25673e+08   273005    1.14%
Elapsed time = 12.37 sec. (16705.05 ticks, tree = 14.53 MB, solutions = 19)
  33609 27085   2.25983e+08    41   2.28280e+08   2.25673e+08   335889    1.14%
  33610 27086   2.25983e+08    40   2.28280e+08   2.25673e+08   335890    1.14%
  33611 27087   2.25995e+08    38   2.28280e+08   2.25673e+08   335891    1.14%
  33612 27088   2.26029e+08    39   2.28280e+08   2.25673e+08   335893    1.14%
  33613 27089   2.26054e+08    37   2.28280e+08   2.25673e+08   335896    1.14%
  33614 27090   2.26054e+08    37   2.28280e+08   2.25673e+08   335897    1.14%
  33615 27091   2.26072e+08    37   2.28280e+08   2.25673e+08   335899    1.14%
  33616 27092   2.26087e+08    37   2.28280e+08   2.25673e+08   335900    1.14%
  33617 27093   2.26088e+08    38   2.28280e+08   2.25673e+08   335902    1.14%
  33618 27094   2.26106e+08    39   2.28280e+08   2.25673e+08   335908    1.14%
Elapsed time = 15.06 sec. (20522.38 ticks, tree = 17.49 MB, solutions = 19)
  37038 30047        cutoff         2.28280e+08   2.25673e+08   401720    1.14%
  37039 30048   2.25673e+08    42   2.28280e+08   2.25673e+08   401784    1.14%
  37040 30049   2.25673e+08    37   2.28280e+08   2.25673e+08   401796    1.14%
  37041 30050   2.25673e+08    33   2.28280e+08   2.25673e+08   401798    1.14%
  37042 30051   2.25673e+08    33   2.28280e+08   2.25673e+08   401802    1.14%
  37043 30052   2.25673e+08    40   2.28280e+08   2.25673e+08   401864    1.14%
  37044 30053   2.25673e+08    29   2.28280e+08   2.25673e+08   401878    1.14%
  37045 30054   2.25673e+08    35   2.28280e+08   2.25673e+08   401910    1.14%
  37046 30055   2.25673e+08    36   2.28280e+08   2.25673e+08   402006    1.14%
  37047 30056   2.25673e+08    33   2.28280e+08   2.25673e+08   402010    1.14%
Elapsed time = 17.78 sec. (24364.87 ticks, tree = 19.45 MB, solutions = 19)
  40835 33322   2.27625e+08    40   2.28280e+08   2.25673e+08   466843    1.14%
  40836 33321        cutoff         2.28280e+08   2.25673e+08   466855    1.14%
  40837 33320        cutoff         2.28280e+08   2.25673e+08   466871    1.14%
  40838 33319        cutoff         2.28280e+08   2.25673e+08   467096    1.14%
  40839 33318        cutoff         2.28280e+08   2.25673e+08   467234    1.14%
  40840 33319   2.26027e+08    56   2.28280e+08   2.25673e+08   467458    1.14%
  40841 33320   2.26031e+08    53   2.28280e+08   2.25673e+08   467465    1.14%
  40842 33321   2.26040e+08    52   2.28280e+08   2.25673e+08   467539    1.14%
  40843 33322   2.26043e+08    51   2.28280e+08   2.25673e+08   467545    1.14%
  40844 33321        cutoff         2.28280e+08   2.25673e+08   467603    1.14%
Elapsed time = 20.45 sec. (28213.26 ticks, tree = 22.44 MB, solutions = 19)
  44733 36745   2.25673e+08    49   2.28280e+08   2.25673e+08   531132    1.14%
  44734 36746   2.25673e+08    40   2.28280e+08   2.25673e+08   531133    1.14%
  44735 36747   2.25673e+08    41   2.28280e+08   2.25673e+08   531137    1.14%
  44736 36748   2.25673e+08    50   2.28280e+08   2.25673e+08   531183    1.14%
  44737 36749   2.25673e+08    50   2.28280e+08   2.25673e+08   531189    1.14%
  44738 36750   2.25673e+08    43   2.28280e+08   2.25673e+08   531203    1.14%
  44739 36751   2.25673e+08    43   2.28280e+08   2.25673e+08   531214    1.14%
  44740 36752   2.25673e+08    40   2.28280e+08   2.25673e+08   531271    1.14%
  44741 36753   2.25673e+08    35   2.28280e+08   2.25673e+08   531277    1.14%
  44742 36754   2.25673e+08    37   2.28280e+08   2.25673e+08   531301    1.14%
Elapsed time = 24.13 sec. (32037.04 ticks, tree = 24.62 MB, solutions = 19)
  48718 40218   2.25706e+08    35   2.28280e+08   2.25673e+08   589488    1.14%
  48719 40217        cutoff         2.28280e+08   2.25673e+08   589559    1.14%
  48720 40218   2.25706e+08    36   2.28280e+08   2.25673e+08   589570    1.14%
  48721 40219   2.25706e+08    36   2.28280e+08   2.25673e+08   589572    1.14%
  48722 40220   2.25706e+08    38   2.28280e+08   2.25673e+08   589577    1.14%
  48723 40221   2.25707e+08    39   2.28280e+08   2.25673e+08   589589    1.14%
  48724 40222   2.26262e+08    37   2.28280e+08   2.25673e+08   589619    1.14%
  48725 40223   2.26262e+08    37   2.28280e+08   2.25673e+08   589623    1.14%
  48726 40224   2.26262e+08    40   2.28280e+08   2.25673e+08   589627    1.14%
  48727 40225   2.26468e+08    44   2.28280e+08   2.25673e+08   589659    1.14%
Elapsed time = 27.73 sec. (35867.19 ticks, tree = 26.75 MB, solutions = 19)
  52413 43340   2.25849e+08    45   2.28280e+08   2.25673e+08   654017    1.14%
  52414 43341   2.26027e+08    43   2.28280e+08   2.25673e+08   654036    1.14%
  52415 43342   2.26038e+08    41   2.28280e+08   2.25673e+08   654040    1.14%
  52416 43343   2.26058e+08    43   2.28280e+08   2.25673e+08   654041    1.14%
  52417 43344   2.26133e+08    42   2.28280e+08   2.25673e+08   654054    1.14%
  52418 43345   2.26135e+08    42   2.28280e+08   2.25673e+08   654056    1.14%
  52419 43346   2.26136e+08    43   2.28280e+08   2.25673e+08   654057    1.14%
  52420 43347   2.26177e+08    45   2.28280e+08   2.25673e+08   654063    1.14%
  52421 43348   2.26404e+08    47   2.28280e+08   2.25673e+08   654075    1.14%
  52422 43349   2.26420e+08    41   2.28280e+08   2.25673e+08   654077    1.14%
Elapsed time = 31.40 sec. (39725.15 ticks, tree = 28.68 MB, solutions = 19)
  56149 46541   2.25673e+08    36   2.28280e+08   2.25673e+08   717916    1.14%
  56150 46542   2.25673e+08    31   2.28280e+08   2.25673e+08   717918    1.14%
  56151 46543   2.25673e+08    44   2.28280e+08   2.25673e+08   717975    1.14%
  56152 46544   2.25673e+08    42   2.28280e+08   2.25673e+08   717977    1.14%
  56153 46545   2.25673e+08    41   2.28280e+08   2.25673e+08   717981    1.14%
  56154 46546   2.25673e+08    40   2.28280e+08   2.25673e+08   717982    1.14%
  56155 46547   2.25673e+08    38   2.28280e+08   2.25673e+08   718070    1.14%
  56156 46548   2.25673e+08    33   2.28280e+08   2.25673e+08   718089    1.14%
  56157 46549   2.25673e+08    32   2.28280e+08   2.25673e+08   718092    1.14%
  56158 46550   2.25673e+08    35   2.28280e+08   2.25673e+08   718133    1.14%
Elapsed time = 35.03 sec. (43550.45 ticks, tree = 30.69 MB, solutions = 19)
* 56613+45037                       2.27602e+08   2.25673e+08             0.85%
  59918 47948   2.25673e+08    40   2.27602e+08   2.25673e+08   779258    0.85%
  59919 47949   2.25673e+08    39   2.27602e+08   2.25673e+08   779261    0.85%
  59920 47950   2.25673e+08    50   2.27602e+08   2.25673e+08   779333    0.85%
  59921 47951   2.25673e+08    44   2.27602e+08   2.25673e+08   779334    0.85%
  59922 47952   2.25673e+08    51   2.27602e+08   2.25673e+08   779378    0.85%
  59923 47953   2.25673e+08    62   2.27602e+08   2.25673e+08   779385    0.85%
  59924 47954   2.25673e+08    61   2.27602e+08   2.25673e+08   779387    0.85%
  59925 47955   2.25673e+08    61   2.27602e+08   2.25673e+08   779391    0.85%
  59926 47956   2.25673e+08    59   2.27602e+08   2.25673e+08   779396    0.85%
  59927 47957   2.25673e+08    53   2.27602e+08   2.25673e+08   779402    0.85%
Elapsed time = 38.75 sec. (47376.05 ticks, tree = 31.45 MB, solutions = 20)
  64245 51806   2.25955e+08    28   2.27602e+08   2.25673e+08   841953    0.85%
  64246 51807   2.25955e+08    24   2.27602e+08   2.25673e+08   841959    0.85%
  64247 51808   2.25955e+08    24   2.27602e+08   2.25673e+08   841962    0.85%
  64248 51809   2.25955e+08    34   2.27602e+08   2.25673e+08   842024    0.85%
  64249 51810   2.25955e+08    34   2.27602e+08   2.25673e+08   842025    0.85%
  64250 51811   2.25955e+08    43   2.27602e+08   2.25673e+08   842074    0.85%
  64251 51812   2.25955e+08    43   2.27602e+08   2.25673e+08   842079    0.85%
  64252 51813   2.25955e+08    43   2.27602e+08   2.25673e+08   842083    0.85%
  64253 51814   2.25955e+08    41   2.27602e+08   2.25673e+08   842087    0.85%
  64254 51815   2.25955e+08    40   2.27602e+08   2.25673e+08   842101    0.85%
Elapsed time = 42.27 sec. (51202.30 ticks, tree = 33.94 MB, solutions = 20)
  68818 55542   2.26225e+08    39   2.27602e+08   2.25673e+08   906184    0.85%
  68819 55543   2.26495e+08    33   2.27602e+08   2.25673e+08   906354    0.85%
  68820 55542        cutoff         2.27602e+08   2.25673e+08   906356    0.85%
  68821 55541        cutoff         2.27602e+08   2.25673e+08   906360    0.85%
  68822 55540        cutoff         2.27602e+08   2.25673e+08   906379    0.85%
  68823 55541   2.26480e+08    37   2.27602e+08   2.25673e+08   906729    0.85%
  68824 55542   2.26480e+08    37   2.27602e+08   2.25673e+08   906730    0.85%
  68825 55543   2.26480e+08    32   2.27602e+08   2.25673e+08   906732    0.85%
  68826 55544   2.26480e+08    31   2.27602e+08   2.25673e+08   906733    0.85%
  68827 55545   2.26480e+08    33   2.27602e+08   2.25673e+08   906734    0.85%
Elapsed time = 45.88 sec. (55043.33 ticks, tree = 36.27 MB, solutions = 20)
  72065 57740   2.25673e+08    26   2.27602e+08   2.25673e+08   972010    0.85%
  72066 57741   2.25673e+08    28   2.27602e+08   2.25673e+08   972043    0.85%
  72067 57740        cutoff         2.27602e+08   2.25673e+08   972115    0.85%
  72068 57741   2.25673e+08    28   2.27602e+08   2.25673e+08   972119    0.85%
  72069 57742   2.25673e+08    26   2.27602e+08   2.25673e+08   972125    0.85%
  72070 57743   2.25673e+08    27   2.27602e+08   2.25673e+08   972127    0.85%
  72071 57744   2.25673e+08    41   2.27602e+08   2.25673e+08   972206    0.85%
  72072 57745   2.25673e+08    39   2.27602e+08   2.25673e+08   972209    0.85%
  72073 57744        cutoff         2.27602e+08   2.25673e+08   972248    0.85%
  72074 57745   2.25673e+08    42   2.27602e+08   2.25673e+08   972257    0.85%
Elapsed time = 49.51 sec. (58868.06 ticks, tree = 37.63 MB, solutions = 20)
  75731 60155   2.25673e+08    36   2.27602e+08   2.25673e+08  1040531    0.85%
  75732 60156   2.25673e+08    36   2.27602e+08   2.25673e+08  1040537    0.85%
  75733 60157   2.25673e+08    36   2.27602e+08   2.25673e+08  1040542    0.85%
  75734 60157   2.26538e+08    40   2.27602e+08   2.25673e+08  1040643    0.85%
  75735 60156        cutoff         2.27602e+08   2.25673e+08  1040645    0.85%
  75736 60155        cutoff         2.27602e+08   2.25673e+08  1040778    0.85%
  75737 60154        cutoff         2.27602e+08   2.25673e+08  1040830    0.85%
  75738 60155   2.25673e+08    23   2.27602e+08   2.25673e+08  1040839    0.85%
  75739 60156   2.25673e+08    24   2.27602e+08   2.25673e+08  1040861    0.85%
  75740 60157   2.25673e+08    22   2.27602e+08   2.25673e+08  1040864    0.85%
Elapsed time = 53.15 sec. (62702.14 ticks, tree = 39.14 MB, solutions = 20)
  79932 63387   2.25769e+08    38   2.27602e+08   2.25673e+08  1102290    0.85%
  79933 63388   2.25993e+08    37   2.27602e+08   2.25673e+08  1102310    0.85%
  79934 63389   2.25993e+08    37   2.27602e+08   2.25673e+08  1102311    0.85%
  79935 63390   2.25993e+08    39   2.27602e+08   2.25673e+08  1102317    0.85%
  79936 63391   2.25994e+08    43   2.27602e+08   2.25673e+08  1102325    0.85%
  79937 63391   2.26809e+08    35   2.27602e+08   2.25673e+08  1102362    0.85%
  79938 63390        cutoff         2.27602e+08   2.25673e+08  1102368    0.85%
  79939 63391   2.25768e+08    37   2.27602e+08   2.25673e+08  1102721    0.85%
  79940 63390        cutoff         2.27602e+08   2.25673e+08  1102778    0.85%
  79941 63389        cutoff         2.27602e+08   2.25673e+08  1102794    0.85%
Elapsed time = 56.74 sec. (66549.98 ticks, tree = 41.12 MB, solutions = 20)
  83665 66428   2.25749e+08    45   2.27602e+08   2.25673e+08  1167728    0.85%
  83666 66429   2.25817e+08    44   2.27602e+08   2.25673e+08  1167740    0.85%
  83667 66430   2.26078e+08    52   2.27602e+08   2.25673e+08  1167793    0.85%
  83668 66431   2.26215e+08    51   2.27602e+08   2.25673e+08  1167831    0.85%
  83669 66430        cutoff         2.27602e+08   2.25673e+08  1167834    0.85%
  83670 66429        cutoff         2.27602e+08   2.25673e+08  1167863    0.85%
  83671 66428        cutoff         2.27602e+08   2.25673e+08  1167935    0.85%
  83672 66429   2.25673e+08    32   2.27602e+08   2.25673e+08  1168063    0.85%
  83673 66430   2.25673e+08    29   2.27602e+08   2.25673e+08  1168118    0.85%
  83674 66431   2.25673e+08    35   2.27602e+08   2.25673e+08  1168131    0.85%
Elapsed time = 60.38 sec. (70393.72 ticks, tree = 44.92 MB, solutions = 20)
  87382 69586   2.25673e+08    45   2.27602e+08   2.25673e+08  1234526    0.85%
  87383 69587   2.25673e+08    44   2.27602e+08   2.25673e+08  1234527    0.85%
  87384 69588   2.25673e+08    44   2.27602e+08   2.25673e+08  1234528    0.85%
  87385 69589   2.25673e+08    42   2.27602e+08   2.25673e+08  1234531    0.85%
  87386 69590   2.25673e+08    41   2.27602e+08   2.25673e+08  1234532    0.85%
  87387 69591   2.25673e+08    42   2.27602e+08   2.25673e+08  1234537    0.85%
  87388 69592   2.25673e+08    42   2.27602e+08   2.25673e+08  1234538    0.85%
  87389 69593   2.25677e+08    42   2.27602e+08   2.25673e+08  1234543    0.85%
  87390 69594   2.25680e+08    40   2.27602e+08   2.25673e+08  1234546    0.85%
  87391 69595   2.25701e+08    44   2.27602e+08   2.25673e+08  1234554    0.85%
Elapsed time = 64.05 sec. (74211.93 ticks, tree = 46.89 MB, solutions = 20)
  91378 73006   2.25675e+08    55   2.27602e+08   2.25673e+08  1297504    0.85%
  91379 73007   2.25676e+08    55   2.27602e+08   2.25673e+08  1297506    0.85%
  91380 73008   2.25676e+08    46   2.27602e+08   2.25673e+08  1297507    0.85%
  91381 73009   2.25680e+08    46   2.27602e+08   2.25673e+08  1297521    0.85%
  91382 73010   2.25680e+08    46   2.27602e+08   2.25673e+08  1297522    0.85%
  91383 73011   2.25681e+08    47   2.27602e+08   2.25673e+08  1297525    0.85%
  91384 73012   2.25682e+08    48   2.27602e+08   2.25673e+08  1297529    0.85%
  91385 73013   2.25682e+08    48   2.27602e+08   2.25673e+08  1297530    0.85%
  91386 73014   2.25685e+08    45   2.27602e+08   2.25673e+08  1297538    0.85%
  91387 73015   2.25687e+08    44   2.27602e+08   2.25673e+08  1297542    0.85%
Elapsed time = 67.68 sec. (78032.74 ticks, tree = 49.03 MB, solutions = 20)
  95416 76252   2.26253e+08    33   2.27602e+08   2.25673e+08  1361288    0.85%
  95417 76253   2.26253e+08    33   2.27602e+08   2.25673e+08  1361289    0.85%
  95418 76252        cutoff         2.27602e+08   2.25673e+08  1361292    0.85%
  95419 76251        cutoff         2.27602e+08   2.25673e+08  1361295    0.85%
  95420 76250        cutoff         2.27602e+08   2.25673e+08  1361422    0.85%
  95421 76251   2.25698e+08    53   2.27602e+08   2.25673e+08  1361551    0.85%
  95422 76252   2.25698e+08    52   2.27602e+08   2.25673e+08  1361554    0.85%
  95423 76253   2.25698e+08    52   2.27602e+08   2.25673e+08  1361557    0.85%
  95424 76254   2.25698e+08    52   2.27602e+08   2.25673e+08  1361559    0.85%
  95425 76255   2.25698e+08    52   2.27602e+08   2.25673e+08  1361560    0.85%
Elapsed time = 71.30 sec. (81860.28 ticks, tree = 51.04 MB, solutions = 20)
  98676 78527        cutoff         2.27602e+08   2.25673e+08  1430124    0.85%
  98677 78528   2.25673e+08    39   2.27602e+08   2.25673e+08  1430289    0.85%
  98678 78529   2.25673e+08    40   2.27602e+08   2.25673e+08  1430291    0.85%
  98679 78530   2.25673e+08    38   2.27602e+08   2.25673e+08  1430302    0.85%
  98680 78531   2.25673e+08    38   2.27602e+08   2.25673e+08  1430304    0.85%
  98681 78532   2.25673e+08    38   2.27602e+08   2.25673e+08  1430306    0.85%
  98682 78533   2.25673e+08    38   2.27602e+08   2.25673e+08  1430310    0.85%
  98683 78534   2.25673e+08    38   2.27602e+08   2.25673e+08  1430312    0.85%
  98684 78535   2.25673e+08    35   2.27602e+08   2.25673e+08  1430316    0.85%
  98685 78536   2.25673e+08    34   2.27602e+08   2.25673e+08  1430322    0.85%
Elapsed time = 75.01 sec. (85690.74 ticks, tree = 52.46 MB, solutions = 20)
 102477 81506   2.25673e+08    39   2.27602e+08   2.25673e+08  1492697    0.85%
 102478 81507   2.25673e+08    39   2.27602e+08   2.25673e+08  1492699    0.85%
 102479 81508   2.25673e+08    40   2.27602e+08   2.25673e+08  1492758    0.85%
 102480 81509   2.25673e+08    41   2.27602e+08   2.25673e+08  1492765    0.85%
 102481 81510   2.25673e+08    41   2.27602e+08   2.25673e+08  1492767    0.85%
 102482 81511   2.25673e+08    40   2.27602e+08   2.25673e+08  1492768    0.85%
 102483 81512   2.25816e+08    34   2.27602e+08   2.25673e+08  1492816    0.85%
 102484 81513   2.26066e+08    33   2.27602e+08   2.25673e+08  1492824    0.85%
 102485 81514   2.26070e+08    31   2.27602e+08   2.25673e+08  1492827    0.85%
 102486 81515   2.26152e+08    33   2.27602e+08   2.25673e+08  1492830    0.85%
Elapsed time = 78.58 sec. (89514.43 ticks, tree = 54.31 MB, solutions = 20)
 106954 85329   2.25813e+08    53   2.27602e+08   2.25673e+08  1555809    0.85%
 106955 85328        cutoff         2.27602e+08   2.25673e+08  1555838    0.85%
 106956 85329   2.26211e+08    33   2.27602e+08   2.25673e+08  1555886    0.85%
 106957 85328        cutoff         2.27602e+08   2.25673e+08  1555919    0.85%
 106958 85327        cutoff         2.27602e+08   2.25673e+08  1555940    0.85%
 106959 85328   2.25673e+08    39   2.27602e+08   2.25673e+08  1556016    0.85%
 106960 85329   2.25673e+08    35   2.27602e+08   2.25673e+08  1556030    0.85%
 106961 85330   2.25673e+08    34   2.27602e+08   2.25673e+08  1556032    0.85%
 106962 85331   2.25673e+08    26   2.27602e+08   2.25673e+08  1556033    0.85%
 106963 85332   2.25673e+08    27   2.27602e+08   2.25673e+08  1556036    0.85%
Elapsed time = 82.17 sec. (93346.18 ticks, tree = 56.67 MB, solutions = 20)
 111913 89298   2.25673e+08    33   2.27602e+08   2.25673e+08  1624847    0.85%
 111914 89299   2.25673e+08    32   2.27602e+08   2.25673e+08  1624848    0.85%
 111915 89300   2.25673e+08    33   2.27602e+08   2.25673e+08  1624852    0.85%
 111916 89301   2.25673e+08    34   2.27602e+08   2.25673e+08  1624855    0.85%
 111917 89302   2.25673e+08    31   2.27602e+08   2.25673e+08  1624856    0.85%
 111918 89303   2.25673e+08    33   2.27602e+08   2.25673e+08  1624867    0.85%
 111919 89304   2.25673e+08    33   2.27602e+08   2.25673e+08  1624868    0.85%
 111920 89305   2.25673e+08    35   2.27602e+08   2.25673e+08  1624872    0.85%
 111921 89306   2.25673e+08    32   2.27602e+08   2.25673e+08  1624876    0.85%
 111922 89307   2.25673e+08    41   2.27602e+08   2.25673e+08  1624904    0.85%
Elapsed time = 85.84 sec. (97294.52 ticks, tree = 59.35 MB, solutions = 20)
 116456 93056   2.25991e+08    44   2.27602e+08   2.25673e+08  1698260    0.85%
 116457 93055        cutoff         2.27602e+08   2.25673e+08  1698544    0.85%
 116458 93056   2.25991e+08    38   2.27602e+08   2.25673e+08  1698559    0.85%
 116459 93057   2.25991e+08    37   2.27602e+08   2.25673e+08  1698560    0.85%
 116460 93058   2.25991e+08    37   2.27602e+08   2.25673e+08  1698577    0.85%
 116461 93059   2.25991e+08    35   2.27602e+08   2.25673e+08  1698587    0.85%
 116462 93060   2.25991e+08    37   2.27602e+08   2.25673e+08  1698603    0.85%
 116463 93061   2.25991e+08    38   2.27602e+08   2.25673e+08  1698660    0.85%
 116464 93062   2.25991e+08    37   2.27602e+08   2.25673e+08  1698674    0.85%
 116465 93063   2.25991e+08    34   2.27602e+08   2.25673e+08  1698676    0.85%
Elapsed time = 89.46 sec. (101136.42 ticks, tree = 61.76 MB, solutions = 20)
 118913 95092   2.25683e+08    40   2.27602e+08   2.25673e+08  1745973    0.85%
 118914 95093   2.25684e+08    38   2.27602e+08   2.25673e+08  1745977    0.85%
 118915 95094   2.25684e+08    52   2.27602e+08   2.25673e+08  1745983    0.85%
 118916 95095   2.25685e+08    50   2.27602e+08   2.25673e+08  1745985    0.85%
 118917 95096   2.25685e+08    51   2.27602e+08   2.25673e+08  1745989    0.85%
 118918 95097   2.25685e+08    39   2.27602e+08   2.25673e+08  1745990    0.85%
 118919 95098   2.25686e+08    40   2.27602e+08   2.25673e+08  1745991    0.85%
 118920 95099   2.25686e+08    39   2.27602e+08   2.25673e+08  1745992    0.85%
 118921 95100   2.25688e+08    39   2.27602e+08   2.25673e+08  1746000    0.85%
 118922 95101   2.25688e+08    36   2.27602e+08   2.25673e+08  1746002    0.85%
Elapsed time = 93.21 sec. (105254.30 ticks, tree = 63.04 MB, solutions = 20)
 121140 96846   2.25673e+08    37   2.27602e+08   2.25673e+08  1790005    0.85%
 121141 96847   2.25673e+08    32   2.27602e+08   2.25673e+08  1790009    0.85%
 121142 96848   2.25673e+08    43   2.27602e+08   2.25673e+08  1790107    0.85%
 121143 96849   2.25673e+08    44   2.27602e+08   2.25673e+08  1790109    0.85%
 121144 96850   2.25673e+08    43   2.27602e+08   2.25673e+08  1790114    0.85%
 121145 96851   2.25673e+08    39   2.27602e+08   2.25673e+08  1790123    0.85%
 121146 96852   2.25915e+08    33   2.27602e+08   2.25673e+08  1790218    0.85%
 121147 96851        cutoff         2.27602e+08   2.25673e+08  1790230    0.85%
 121148 96850        cutoff         2.27602e+08   2.25673e+08  1790255    0.85%
 121149 96849        cutoff         2.27602e+08   2.25673e+08  1790302    0.85%
Elapsed time = 96.58 sec. (109086.39 ticks, tree = 64.16 MB, solutions = 20)

Cover cuts applied:  452
Mixed integer rounding cuts applied:  16
Zero-half cuts applied:  1
Gomory fractional cuts applied:  8

Root node processing (before b&c):
  Real time             =    0.06 sec. (67.23 ticks)
Sequential b&c:
  Real time             =   99.94 sec. (112608.42 ticks)
                          ------------
Total (root+branch&cut) =  100.00 sec. (112675.65 ticks)

Solution pool: 20 solutions saved.

MIP - Time limit exceeded, integer feasible:  Objective =  2.2760160200e+08
Current MIP best bound =  2.2567326400e+08 (gap = 1.92834e+06, 0.85%)
Solution time =  100.00 sec.  Iterations = 1853636  Nodes = 123932 (98926)
Deterministic time = 112675.65 ticks  (1126.75 ticks/sec)


Incumbent solution written to file '/tmp/tmpevX5ZI.cplex.sol'.
